30
1 0 13
3 0 3
4 0 12
4 3 8
5 1 4
5 4 4
6 1 3
6 3 5
6 5 2
7 0 5
7 2 12
7 3 3
7 6 5
8 0 8
8 2 4
8 3 4
8 5 1
8 6 7
9 3 6
9 4 10
9 5 8
9 8 4
10 1 13
10 2 12
10 3 12
10 4 2
10 5 3
10 6 7
11 0 8
11 2 3
11 3 8
11 7 7
11 8 12
11 9 2
12 0 4
12 1 5
12 3 8
12 4 6
12 5 1
12 8 6
12 9 4
12 10 7
12 11 1
13 3 10
13 4 9
13 6 12
13 12 1
14 0 5
14 1 1
14 2 9
14 3 11
14 4 8
14 12 9
14 13 5
15 1 10
15 3 9
15 5 6
15 6 10
15 10 9
15 12 7
15 13 3
16 1 3
16 4 9
16 5 2
16 9 10
16 10 7
16 13 13
17 0 13
17 2 9
17 6 8
17 8 9
17 9 9
17 11 2
17 12 6
17 13 1
17 14 5
17 15 8
18 3 4
18 6 5
18 8 6
18 14 12
18 16 6
19 1 8
19 4 11
19 5 12
19 8 2
19 9 9
19 10 12
19 15 3
19 18 2
20 0 8
20 1 4
20 3 12
20 4 1
20 6 11
20 7 9
20 8 2
20 9 1
20 10 11
20 12 2
20 13 10
20 14 11
20 15 5
20 16 11
20 17 10
20 18 2
20 19 3
21 1 9
21 2 13
21 10 13
21 12 4
21 13 13
21 14 1
21 15 12
21 16 3
21 18 7
21 20 9
22 0 11
22 1 9
22 3 6
22 6 5
22 8 6
22 11 2
22 12 7
22 13 11
22 14 12
22 16 5
22 19 3
23 0 5
23 2 13
23 3 2
23 7 1
23 11 2
23 12 4
23 13 4
23 15 3
23 16 4
23 17 10
23 19 8
23 21 1
23 22 12
24 3 13
24 4 11
24 6 8
24 7 6
24 8 3
24 9 11
24 11 8
24 13 12
24 15 5
24 16 8
24 18 8
24 20 13
25 1 5
25 2 4
25 7 6
25 8 3
25 9 6
25 10 10
25 11 5
25 12 7
25 15 8
25 18 5
25 20 7
25 21 2
25 22 4
25 23 4
26 0 7
26 4 11
26 5 11
26 9 9
26 10 13
26 12 7
26 13 10
26 14 13
26 15 3
26 17 13
26 19 8
26 23 10
26 24 7
27 0 11
27 1 11
27 2 10
27 3 6
27 4 13
27 5 1
27 6 10
27 10 9
27 13 7
27 15 3
27 17 6
27 20 1
27 21 12
27 22 7
27 24 2
27 26 12
28 0 13
28 1 10
28 4 8
28 6 12
28 7 1
28 8 10
28 10 5
28 12 8
28 13 6
28 16 5
28 17 13
28 19 4
28 24 8
28 27 6
29 5 11
29 6 5
29 7 6
29 9 12
29 10 1
29 20 4
29 22 7
29 24 6
29 25 8
29 27 9
29 28 13
